c File: flat50_3_0.col
c
c SOURCE: Joseph Culberson (joe@cs.ualberta.ca)
c DESCRIPTION: Quasi-random coloring problem
c              generated with flatness = 0
c                             probability = 0.139
c                             known coloring = 3
c                             random seed = 1912
c              Creation Date:  Tue Jun  9 12:21:01 1998
c Maximum degree = 7 Minimum degree = 1
c p edge 50 115
c cnf created by edge2cnf
p cnf 150 545
-1 -2 0
-1 -3 0
-2 -3 0
1 2 3 0
-4 -5 0
-4 -6 0
-5 -6 0
4 5 6 0
-7 -8 0
-7 -9 0
-8 -9 0
7 8 9 0
-10 -11 0
-10 -12 0
-11 -12 0
10 11 12 0
-13 -14 0
-13 -15 0
-14 -15 0
13 14 15 0
-16 -17 0
-16 -18 0
-17 -18 0
16 17 18 0
-19 -20 0
-19 -21 0
-20 -21 0
19 20 21 0
-22 -23 0
-22 -24 0
-23 -24 0
22 23 24 0
-25 -26 0
-25 -27 0
-26 -27 0
25 26 27 0
-28 -29 0
-28 -30 0
-29 -30 0
28 29 30 0
-31 -32 0
-31 -33 0
-32 -33 0
31 32 33 0
-34 -35 0
-34 -36 0
-35 -36 0
34 35 36 0
-37 -38 0
-37 -39 0
-38 -39 0
37 38 39 0
-40 -41 0
-40 -42 0
-41 -42 0
40 41 42 0
-43 -44 0
-43 -45 0
-44 -45 0
43 44 45 0
-46 -47 0
-46 -48 0
-47 -48 0
46 47 48 0
-49 -50 0
-49 -51 0
-50 -51 0
49 50 51 0
-52 -53 0
-52 -54 0
-53 -54 0
52 53 54 0
-55 -56 0
-55 -57 0
-56 -57 0
55 56 57 0
-58 -59 0
-58 -60 0
-59 -60 0
58 59 60 0
-61 -62 0
-61 -63 0
-62 -63 0
61 62 63 0
-64 -65 0
-64 -66 0
-65 -66 0
64 65 66 0
-67 -68 0
-67 -69 0
-68 -69 0
67 68 69 0
-70 -71 0
-70 -72 0
-71 -72 0
70 71 72 0
-73 -74 0
-73 -75 0
-74 -75 0
73 74 75 0
-76 -77 0
-76 -78 0
-77 -78 0
76 77 78 0
-79 -80 0
-79 -81 0
-80 -81 0
79 80 81 0
-82 -83 0
-82 -84 0
-83 -84 0
82 83 84 0
-85 -86 0
-85 -87 0
-86 -87 0
85 86 87 0
-88 -89 0
-88 -90 0
-89 -90 0
88 89 90 0
-91 -92 0
-91 -93 0
-92 -93 0
91 92 93 0
-94 -95 0
-94 -96 0
-95 -96 0
94 95 96 0
-97 -98 0
-97 -99 0
-98 -99 0
97 98 99 0
-100 -101 0
-100 -102 0
-101 -102 0
100 101 102 0
-103 -104 0
-103 -105 0
-104 -105 0
103 104 105 0
-106 -107 0
-106 -108 0
-107 -108 0
106 107 108 0
-109 -110 0
-109 -111 0
-110 -111 0
109 110 111 0
-112 -113 0
-112 -114 0
-113 -114 0
112 113 114 0
-115 -116 0
-115 -117 0
-116 -117 0
115 116 117 0
-118 -119 0
-118 -120 0
-119 -120 0
118 119 120 0
-121 -122 0
-121 -123 0
-122 -123 0
121 122 123 0
-124 -125 0
-124 -126 0
-125 -126 0
124 125 126 0
-127 -128 0
-127 -129 0
-128 -129 0
127 128 129 0
-130 -131 0
-130 -132 0
-131 -132 0
130 131 132 0
-133 -134 0
-133 -135 0
-134 -135 0
133 134 135 0
-136 -137 0
-136 -138 0
-137 -138 0
136 137 138 0
-139 -140 0
-139 -141 0
-140 -141 0
139 140 141 0
-142 -143 0
-142 -144 0
-143 -144 0
142 143 144 0
-145 -146 0
-145 -147 0
-146 -147 0
145 146 147 0
-148 -149 0
-148 -150 0
-149 -150 0
148 149 150 0
-85 -1 0
-86 -2 0
-87 -3 0
-94 -1 0
-95 -2 0
-96 -3 0
-109 -1 0
-110 -2 0
-111 -3 0
-127 -1 0
-128 -2 0
-129 -3 0
-82 -4 0
-83 -5 0
-84 -6 0
-100 -4 0
-101 -5 0
-102 -6 0
-106 -4 0
-107 -5 0
-108 -6 0
-133 -4 0
-134 -5 0
-135 -6 0
-148 -4 0
-149 -5 0
-150 -6 0
-67 -7 0
-68 -8 0
-69 -9 0
-76 -7 0
-77 -8 0
-78 -9 0
-79 -7 0
-80 -8 0
-81 -9 0
-106 -7 0
-107 -8 0
-108 -9 0
-118 -7 0
-119 -8 0
-120 -9 0
-136 -7 0
-137 -8 0
-138 -9 0
-148 -7 0
-149 -8 0
-150 -9 0
-52 -10 0
-53 -11 0
-54 -12 0
-73 -10 0
-74 -11 0
-75 -12 0
-85 -10 0
-86 -11 0
-87 -12 0
-100 -10 0
-101 -11 0
-102 -12 0
-142 -10 0
-143 -11 0
-144 -12 0
-64 -13 0
-65 -14 0
-66 -15 0
-70 -13 0
-71 -14 0
-72 -15 0
-88 -13 0
-89 -14 0
-90 -15 0
-52 -16 0
-53 -17 0
-54 -18 0
-58 -16 0
-59 -17 0
-60 -18 0
-85 -16 0
-86 -17 0
-87 -18 0
-100 -16 0
-101 -17 0
-102 -18 0
-112 -16 0
-113 -17 0
-114 -18 0
-79 -19 0
-80 -20 0
-81 -21 0
-127 -19 0
-128 -20 0
-129 -21 0
-142 -19 0
-143 -20 0
-144 -21 0
-145 -19 0
-146 -20 0
-147 -21 0
-148 -19 0
-149 -20 0
-150 -21 0
-55 -22 0
-56 -23 0
-57 -24 0
-58 -22 0
-59 -23 0
-60 -24 0
-76 -22 0
-77 -23 0
-78 -24 0
-97 -22 0
-98 -23 0
-99 -24 0
-106 -22 0
-107 -23 0
-108 -24 0
-76 -25 0
-77 -26 0
-78 -27 0
-85 -25 0
-86 -26 0
-87 -27 0
-118 -25 0
-119 -26 0
-120 -27 0
-136 -25 0
-137 -26 0
-138 -27 0
-139 -25 0
-140 -26 0
-141 -27 0
-145 -25 0
-146 -26 0
-147 -27 0
-61 -28 0
-62 -29 0
-63 -30 0
-73 -28 0
-74 -29 0
-75 -30 0
-82 -28 0
-83 -29 0
-84 -30 0
-145 -28 0
-146 -29 0
-147 -30 0
-55 -31 0
-56 -32 0
-57 -33 0
-70 -31 0
-71 -32 0
-72 -33 0
-109 -31 0
-110 -32 0
-111 -33 0
-121 -31 0
-122 -32 0
-123 -33 0
-130 -31 0
-131 -32 0
-132 -33 0
-67 -34 0
-68 -35 0
-69 -36 0
-76 -34 0
-77 -35 0
-78 -36 0
-100 -34 0
-101 -35 0
-102 -36 0
-106 -34 0
-107 -35 0
-108 -36 0
-112 -34 0
-113 -35 0
-114 -36 0
-130 -34 0
-131 -35 0
-132 -36 0
-136 -34 0
-137 -35 0
-138 -36 0
-55 -37 0
-56 -38 0
-57 -39 0
-94 -37 0
-95 -38 0
-96 -39 0
-142 -37 0
-143 -38 0
-144 -39 0
-73 -40 0
-74 -41 0
-75 -42 0
-112 -40 0
-113 -41 0
-114 -42 0
-115 -40 0
-116 -41 0
-117 -42 0
-124 -40 0
-125 -41 0
-126 -42 0
-97 -43 0
-98 -44 0
-99 -45 0
-130 -43 0
-131 -44 0
-132 -45 0
-118 -46 0
-119 -47 0
-120 -48 0
-142 -46 0
-143 -47 0
-144 -48 0
-70 -49 0
-71 -50 0
-72 -51 0
-88 -49 0
-89 -50 0
-90 -51 0
-97 -49 0
-98 -50 0
-99 -51 0
-133 -49 0
-134 -50 0
-135 -51 0
-139 -49 0
-140 -50 0
-141 -51 0
-118 -52 0
-119 -53 0
-120 -54 0
-124 -52 0
-125 -53 0
-126 -54 0
-142 -52 0
-143 -53 0
-144 -54 0
-112 -55 0
-113 -56 0
-114 -57 0
-139 -55 0
-140 -56 0
-141 -57 0
-145 -55 0
-146 -56 0
-147 -57 0
-121 -61 0
-122 -62 0
-123 -63 0
-130 -61 0
-131 -62 0
-132 -63 0
-139 -61 0
-140 -62 0
-141 -63 0
-145 -61 0
-146 -62 0
-147 -63 0
-106 -64 0
-107 -65 0
-108 -66 0
-115 -64 0
-116 -65 0
-117 -66 0
-124 -64 0
-125 -65 0
-126 -66 0
-136 -64 0
-137 -65 0
-138 -66 0
-130 -70 0
-131 -71 0
-132 -72 0
-109 -73 0
-110 -74 0
-111 -75 0
-127 -73 0
-128 -74 0
-129 -75 0
-148 -73 0
-149 -74 0
-150 -75 0
-130 -76 0
-131 -77 0
-132 -78 0
-145 -76 0
-146 -77 0
-147 -78 0
-109 -79 0
-110 -80 0
-111 -81 0
-133 -79 0
-134 -80 0
-135 -81 0
-121 -82 0
-122 -83 0
-123 -84 0
-130 -82 0
-131 -83 0
-132 -84 0
-148 -82 0
-149 -83 0
-150 -84 0
-148 -85 0
-149 -86 0
-150 -87 0
-118 -88 0
-119 -89 0
-120 -90 0
-121 -88 0
-122 -89 0
-123 -90 0
-103 -91 0
-104 -92 0
-105 -93 0
-142 -91 0
-143 -92 0
-144 -93 0
-106 -94 0
-107 -95 0
-108 -96 0
-136 -94 0
-137 -95 0
-138 -96 0
-139 -94 0
-140 -95 0
-141 -96 0
-106 -97 0
-107 -98 0
-108 -99 0
-121 -97 0
-122 -98 0
-123 -99 0
-127 -97 0
-128 -98 0
-129 -99 0
-142 -97 0
-143 -98 0
-144 -99 0
-118 -100 0
-119 -101 0
-120 -102 0
